160072
77,93,2,100,69,17,62,50,99,81,71,44,24,85,5,39,89,63,15,19,55,87,97,105,41,8,91,22,11,92,88,75,86,43,65,58,9,26,27,0,57,23,101,73,18,80,68,12,30,64,51,4,29,28,54,7,96,16,20,76,45,21,61,1,32,36,48,6,31,74,3,102,60,46,98,67,49,25,33,56,79,82,13,34,52,83,38,35,70,53,94,37,104,103,66,40,10,84,47,72,14,42,78,90,59,95,77